80
84079 24525
82895 60024
13547 18224
29520 45507
2006 14145
35823 1700
81194 86361
85223 65299
47072 35905
54766 680
7869 72120
52046 59748
65737 11749
98225 61386
97223 48119
64056 49389
88711 15635
89284 95087
14090 92467
54811 60950
34686 49179
47717 40501
97861 79667
10506 20891
97883 98648
4580 61932
98160 76791
33449 60213
50592 18996
60951 31891
58754 96123
53937 41839
35324 77479
65467 70886
89411 6394
24409 14168
30280 29295
88911 60914
94809 58706
66185 14787
46559 90798
68361 71159
74635 40377
16136 96891
55837 21996
78263 34498
69633 30210
38328 27613
53238 29373
61274 91639
4643 92039
23953 12230
31664 52522
17844 76057
71572 9933
1822 31148
81084 3620
10243 47388
2752 38056
21218 37599
29110 87499
84097 93507
8271 10941
49083 53127
7635 41858
48489 12259
89668 35807
44347 15236
64389 2112
84295 52667
96733 67564
33585 77002
38006 13440
69659 42388
64210 49262
14272 31937
80476 83784
21378 53304
50820 86016
54574 39114
